n = 15;
n2 = 20;
n3 = 22;
match12 = [|
60, 60, 90, 60, 73, 83, 83, 83, 83, 80, 83, 83, 80, 70, 77, 80, 80, 18, 77, 83|
76, 76, 88, 76, 17, 76, 76, 76, 82, 71, 76, 76, 79, 82, 88, 88, 82, 74, 71, 41|
0, 33, 89, 33, 79, 86, 86, 86, 82, 79, 86, 86, 75, 75, 79, 79, 79, 61, 89, 75|
89, 90, 0, 90, 82, 88, 88, 88, 84, 94, 88, 88, 80, 91, 100, 91, 84, 88, 81, 80|
38, 12, 91, 12, 79, 82, 82, 82, 79, 74, 82, 82, 76, 79, 82, 79, 85, 62, 76, 76|
79, 80, 100, 80, 88, 88, 88, 88, 95, 83, 88, 88, 93, 77, 0, 82, 79, 79, 78, 88|
79, 80, 91, 80, 76, 88, 88, 88, 79, 83, 88, 88, 80, 82, 82, 0, 84, 79, 81, 92|
82, 83, 88, 83, 82, 88, 88, 88, 5, 89, 88, 88, 88, 86, 94, 75, 95, 82, 81, 76|
75, 70, 92, 70, 67, 10, 10, 10, 92, 67, 10, 10, 83, 79, 79, 92, 75, 70, 93, 76|
79, 73, 84, 73, 80, 88, 88, 88, 92, 80, 88, 88, 13, 88, 80, 84, 84, 82, 78, 92|
75, 77, 91, 77, 77, 77, 77, 77, 95, 86, 77, 77, 86, 0, 77, 82, 86, 76, 81, 92|
79, 83, 84, 83, 68, 79, 79, 79, 100, 84, 79, 79, 84, 86, 79, 84, 0, 73, 81, 92|
86, 80, 81, 80, 69, 85, 85, 85, 85, 85, 85, 85, 73, 85, 77, 81, 81, 73, 4, 77|
79, 77, 94, 77, 83, 78, 78, 78, 89, 0, 78, 78, 83, 86, 83, 83, 84, 82, 81, 80|
60, 60, 90, 60, 70, 83, 83, 83, 80, 80, 83, 83, 80, 70, 77, 77, 77, 15, 80, 87|];
match23 = [|
86, 60, 79, 89, 79, 60, 79, 86, 60, 60, 0, 79, 75, 79, 75, 79, 79, 75, 82, 33, 66, 79|
80, 60, 80, 90, 80, 60, 83, 83, 60, 60, 33, 80, 77, 77, 73, 73, 77, 77, 83, 0, 66, 80|
81, 90, 82, 0, 82, 90, 84, 73, 90, 90, 89, 100, 91, 94, 80, 84, 94, 91, 88, 90, 88, 91|
80, 60, 80, 90, 80, 60, 83, 83, 60, 60, 33, 80, 77, 77, 73, 73, 77, 77, 83, 0, 66, 80|
69, 73, 0, 82, 0, 70, 68, 82, 73, 73, 79, 88, 77, 83, 76, 80, 83, 77, 82, 80, 75, 76|
85, 83, 65, 88, 65, 83, 79, 14, 80, 83, 86, 88, 77, 78, 82, 88, 78, 77, 88, 83, 84, 88|
85, 83, 65, 88, 65, 83, 79, 14, 80, 83, 86, 88, 77, 78, 82, 88, 78, 77, 88, 83, 84, 88|
85, 83, 65, 88, 65, 83, 79, 14, 80, 83, 86, 88, 77, 78, 82, 88, 78, 77, 88, 83, 84, 88|
85, 83, 84, 84, 84, 80, 100, 95, 83, 83, 82, 95, 95, 89, 89, 92, 89, 95, 5, 83, 81, 79|
85, 80, 83, 94, 83, 80, 84, 83, 80, 80, 79, 83, 86, 0, 83, 80, 0, 86, 89, 77, 81, 83|
85, 83, 65, 88, 65, 83, 79, 14, 80, 83, 86, 88, 77, 78, 82, 88, 78, 77, 88, 83, 84, 88|
85, 83, 65, 88, 65, 83, 79, 14, 80, 83, 86, 88, 77, 78, 82, 88, 78, 77, 88, 83, 84, 88|
73, 80, 76, 80, 76, 80, 84, 87, 83, 80, 75, 93, 86, 83, 0, 13, 83, 86, 88, 73, 81, 80|
85, 70, 77, 91, 77, 70, 86, 86, 73, 70, 75, 77, 0, 86, 86, 88, 86, 0, 86, 77, 75, 82|
77, 77, 88, 100, 88, 77, 79, 91, 77, 77, 79, 0, 77, 83, 93, 80, 83, 77, 94, 80, 78, 82|
81, 80, 76, 91, 76, 77, 84, 100, 80, 80, 79, 82, 82, 83, 80, 84, 83, 82, 75, 80, 78, 0|
81, 80, 68, 84, 68, 77, 0, 89, 77, 80, 79, 79, 86, 84, 84, 84, 84, 86, 95, 83, 72, 84|
73, 18, 76, 88, 76, 15, 73, 85, 18, 18, 61, 79, 76, 82, 82, 82, 82, 76, 82, 61, 3, 79|
4, 77, 70, 81, 70, 80, 81, 89, 80, 77, 89, 78, 81, 81, 74, 78, 81, 81, 81, 83, 78, 81|
77, 83, 76, 80, 76, 87, 92, 84, 87, 83, 75, 88, 92, 80, 72, 92, 80, 92, 76, 80, 81, 92|];
match31 = [|
73, 71, 86, 81, 76, 77, 81, 81, 92, 85, 85, 81, 0, 85, 77, 100, 100, 100, 100, 100, 100, 100|
0, 65, 60, 90, 56, 77, 80, 83, 67, 80, 70, 80, 73, 80, 10, 100, 100, 100, 100, 100, 100, 100|
73, 17, 79, 82, 79, 88, 76, 82, 67, 80, 77, 68, 69, 83, 70, 100, 100, 100, 100, 100, 100, 100|
90, 88, 89, 0, 91, 100, 91, 88, 92, 84, 91, 84, 81, 94, 90, 100, 100, 100, 100, 100, 100, 100|
73, 17, 79, 82, 79, 88, 76, 82, 67, 80, 77, 68, 69, 83, 70, 100, 100, 100, 100, 100, 100, 100|
10, 62, 60, 90, 56, 77, 77, 80, 67, 80, 70, 77, 77, 80, 0, 100, 100, 100, 100, 100, 100, 100|
80, 82, 79, 84, 85, 79, 84, 95, 75, 84, 86, 0, 81, 84, 77, 100, 100, 100, 100, 100, 100, 100|
83, 85, 86, 73, 85, 91, 100, 94, 19, 84, 86, 89, 88, 83, 83, 100, 100, 100, 100, 100, 100, 100|
10, 65, 60, 90, 56, 77, 80, 83, 63, 83, 73, 77, 77, 80, 10, 100, 100, 100, 100, 100, 100, 100|
0, 65, 60, 90, 56, 77, 80, 83, 67, 80, 70, 80, 73, 80, 10, 100, 100, 100, 100, 100, 100, 100|
60, 76, 0, 89, 38, 79, 79, 82, 75, 79, 75, 79, 86, 79, 60, 100, 100, 100, 100, 100, 100, 100|
77, 88, 79, 100, 82, 0, 82, 94, 79, 80, 77, 79, 77, 83, 77, 100, 100, 100, 100, 100, 100, 100|
70, 82, 75, 91, 79, 77, 82, 86, 79, 88, 0, 86, 85, 86, 70, 100, 100, 100, 100, 100, 100, 100|
80, 71, 79, 94, 74, 83, 83, 89, 67, 80, 86, 84, 85, 0, 80, 100, 100, 100, 100, 100, 100, 100|
80, 79, 75, 80, 76, 93, 80, 88, 83, 13, 86, 84, 73, 83, 80, 100, 100, 100, 100, 100, 100, 100|
80, 76, 79, 84, 74, 80, 84, 84, 80, 0, 88, 84, 85, 80, 80, 100, 100, 100, 100, 100, 100, 100|
80, 71, 79, 94, 74, 83, 83, 89, 67, 80, 86, 84, 85, 0, 80, 100, 100, 100, 100, 100, 100, 100|
70, 82, 75, 91, 79, 77, 82, 86, 79, 88, 0, 86, 85, 86, 70, 100, 100, 100, 100, 100, 100, 100|
83, 76, 82, 88, 79, 94, 75, 0, 83, 84, 86, 95, 81, 89, 80, 100, 100, 100, 100, 100, 100, 100|
60, 76, 33, 90, 12, 80, 80, 83, 70, 73, 77, 83, 80, 77, 60, 100, 100, 100, 100, 100, 100, 100|
22, 74, 66, 88, 65, 78, 78, 81, 69, 81, 75, 72, 75, 81, 19, 100, 100, 100, 100, 100, 100, 100|
80, 88, 79, 91, 79, 82, 0, 75, 92, 84, 82, 84, 81, 83, 77, 100, 100, 100, 100, 100, 100, 100|];
